c Reachability CNF generated by lab1_parser_jkhare.cpp
c File: ./verilog_src/ex1.v
c Unroll k = 1
c Target at time k = 00
p cnf 10 19
-2 -1 5 0
2 -5 0
1 -5 0
-4 -5 6 0
4 -6 0
5 -6 0
5 7 0
-5 -7 0
-4 -5 8 0
4 -8 0
5 -8 0
-9 6 0
9 -6 0
-10 7 0
10 -7 0
-9 0
-10 0
1 0
-2 0
